% Logging successfully configured
=====UNKNOWN=====
% time elapsed: 1800.47 s
%%%mzn-stat: initTime=0.071311247
%%%mzn-stat: nodes=4484333
%%%mzn-stat: restarts=1
%%%mzn-stat: peakDepth=105
%%%mzn-stat: solveTime=1794.749832169
%%%mzn-stat: variables=1395
%%%mzn-stat: propagators=6015
%%%mzn-stat: failures=2882204
%%%mzn-stat: propagations=2621208825
%%%mzn-stat: nogoods=2882204
%%%mzn-stat: numAtomicConstraintsPropagated=0
%%%mzn-stat: circuitNumber4951PropagationsThatFoundConflict=124837
%%%mzn-stat: circuitNumber4951TotalFixedEdgesAtConflict=9838147
%%%mzn-stat: circuitNumber4951NumberOfConflicts=124837
%%%mzn-stat: circuitNumber4951PropagationsThatPruned=1040103
%%%mzn-stat: circuitNumber4951PropagationsTotal=5120059
%%%mzn-stat: AverageConflictSize=27.888652572822743
%%%mzn-stat: NumUnitNogoodsLearned=0
%%%mzn-stat: AverageLearnedNogoodLength=73.56314299751163
%%%mzn-stat: AverageBacktrackAmount=0
%%%mzn-stat: AverageLbd=29.63349367359146
%%%mzn-stat: 2AutonomousSearchNumBackupCalled=1
%%%mzn-stat: 2AutonomousSearchNumPredicatesRemoved=0
%%%mzn-stat: 2AutonomousSearchNumCalls=106
%%%mzn-stat: 2AutonomousSearchNumPredicatesAdded=14157
%%%mzn-stat: 2AutonomousSearchAverageSizeOfHeap=3730.264150943396
%%%mzn-stat: 2AutonomousSearchNumAssignedPredicatesEncountered=11901
%%%mzn-stat-end
